NAME           NO_TITLE
ROWS
 N       OBJ
 L  R0000000
 E  R0000001
COLUMNS
    C0000000       OBJ               0.3
    C0000000  R0000001                 1
    C0000001       OBJ               0.2
    C0000001  R0000001                 1
    C0000002       OBJ              -0.4
    C0000002  R0000001                 1
    C0000003       OBJ               0.2
    C0000003  R0000001                 1
RHS
    RHS1      R0000000               0.2
    RHS1      R0000001                 1
BOUNDS
QSECTION      R0000000
    C0000000  C0000000                 1
    C0000000  C0000001              0.64
    C0000000  C0000002              0.27
    C0000001  C0000001                 1
    C0000001  C0000002              0.13
    C0000002  C0000002                 1
    C0000003  C0000003                 1
ENDATA
